
Gurobi 10.0.0 (win64) logging started Mon Apr 15 10:17:48 2024

Set parameter LogFile to value "C:\Users\ealvarezq\Documents\GitHub\Comillas\Models\JointResearch\05. Models\06.Benchmarking\B.Operation_cost\IEEE118_mod1_ByStages_nc80/openStarNet_IEEE118_mod1_ByStages_nc80.log"
Set parameter Method to value 2
Set parameter MIPFocus to value 1
Set parameter Presolve to value 2
Set parameter RINS to value 100
Set parameter MIPGap to value 0.01
Set parameter Threads to value 9
Set parameter TimeLimit to value 259200
Set parameter IterationLimit to value 760000000
Gurobi Optimizer version 10.0.0 build v10.0.0rc2 (win64)

CPU model: Intel(R) Core(TM) i7-8700 CPU @ 3.20GHz, instruction set [SSE2|AVX|AVX2]
Thread count: 6 physical cores, 12 logical processors, using up to 9 threads

Optimize a model with 113684 rows, 83866 columns and 292469 nonzeros
Model fingerprint: 0x9ec2f051
Variable types: 83832 continuous, 34 integer (34 binary)
Coefficient statistics:
  Matrix range     [8e-04, 9e+03]
  Objective range  [1e+00, 1e+00]
  Bounds range     [1e-04, 3e+00]
  RHS range        [2e-04, 3e+00]
Presolve removed 76910 rows and 38641 columns
Presolve time: 0.41s
Presolved: 36774 rows, 45225 columns, 134454 nonzeros
Variable types: 45191 continuous, 34 integer (34 binary)
Root relaxation presolved: 36774 rows, 45225 columns, 134454 nonzeros

Root barrier log...

Ordering time: 0.01s

Barrier statistics:
 Dense cols : 34
 AA' NZ     : 1.666e+05
 Factor NZ  : 6.451e+05 (roughly 40 MB of memory)
 Factor Ops : 1.348e+07 (less than 1 second per iteration)
 Threads    : 8

                  Objective                Residual
Iter       Primal          Dual         Primal    Dual     Compl     Time
   0   8.82208204e+06 -1.13565912e+09  1.55e+01 1.83e+03  4.61e+04     1s
   1   2.12773717e+06 -4.35417507e+08  3.38e+00 2.55e-08  9.49e+03     1s
   2   6.05915123e+05 -2.21291039e+08  6.62e-01 2.39e-08  2.87e+03     1s
   3   3.64426118e+05 -5.16286900e+07  1.95e-01 6.02e-09  5.94e+02     1s
   4   2.47136662e+05 -7.14126192e+06  1.49e-02 7.28e-10  7.06e+01     1s
   5   1.86844841e+05 -2.05040477e+06  5.43e-03 2.03e-10  2.09e+01     1s
   6   1.08207989e+05 -8.44864515e+05  2.25e-03 8.07e-11  8.83e+00     1s
   7   5.96554614e+04 -2.44162421e+05  1.10e-03 2.07e-11  2.81e+00     1s
   8   1.95062639e+04 -4.19902777e+04  2.29e-04 4.29e-12  5.67e-01     1s
   9   1.19101771e+04 -1.70688139e+04  1.21e-04 5.53e-12  2.67e-01     1s
  10   6.28021883e+03 -5.87890325e+03  5.25e-05 5.89e-12  1.12e-01     1s
  11   4.07524919e+03 -1.76385900e+03  2.81e-05 5.12e-12  5.38e-02     1s
  12   2.60262840e+03 -3.44427395e+02  1.36e-05 3.96e-12  2.72e-02     1s
  13   2.05359957e+03  3.55583884e+02  8.24e-06 4.99e-12  1.56e-02     1s
  14   1.78095416e+03  6.18243495e+02  5.70e-06 5.61e-12  1.07e-02     1s
  15   1.64328533e+03  8.64473648e+02  4.45e-06 5.84e-12  7.18e-03     1s
  16   1.48592268e+03  9.47651850e+02  3.04e-06 7.87e-12  4.96e-03     1s
  17   1.31404615e+03  1.01782223e+03  1.55e-06 9.50e-12  2.73e-03     1s
  18   1.23936171e+03  1.06519742e+03  8.88e-07 1.22e-11  1.61e-03     1s
  19   1.20694665e+03  1.10324199e+03  6.02e-07 5.98e-12  9.56e-04     1s
  20   1.17132238e+03  1.11425150e+03  2.96e-07 5.90e-12  5.26e-04     1s
  21   1.15650923e+03  1.11861334e+03  1.68e-07 3.19e-12  3.49e-04     1s
  22   1.14951359e+03  1.12439517e+03  1.08e-07 2.79e-12  2.31e-04     1s
  23   1.14371332e+03  1.13171892e+03  5.93e-08 7.72e-12  1.11e-04     1s
  24   1.14158176e+03  1.13272051e+03  4.17e-08 5.98e-12  8.17e-05     1s
  25   1.13866621e+03  1.13494294e+03  1.79e-08 3.32e-12  3.43e-05     1s
  26   1.13780665e+03  1.13572200e+03  1.10e-08 1.15e-11  1.92e-05     1s
  27   1.13699615e+03  1.13611597e+03  4.57e-09 3.62e-12  8.11e-06     1s
  28   1.13647283e+03  1.13633941e+03  6.56e-09 5.64e-12  1.23e-06     1s
  29   1.13642407e+03  1.13638360e+03  2.09e-09 3.80e-12  3.73e-07     1s
  30   1.13641487e+03  1.13639289e+03  2.15e-09 1.13e-11  2.02e-07     1s
  31   1.13640446e+03  1.13639638e+03  9.34e-10 7.43e-12  7.44e-08     1s
  32   1.13639840e+03  1.13639691e+03  5.83e-09 3.96e-12  1.37e-08     1s
  33   1.13639742e+03  1.13639723e+03  2.71e-09 1.13e-11  1.76e-09     1s
  34   1.13639728e+03  1.13639728e+03  4.19e-10 7.40e-12  1.68e-11     1s

Barrier solved model in 34 iterations and 1.41 seconds (1.39 work units)
Optimal objective 1.13639728e+03


Root relaxation: objective 1.136397e+03, 3064 iterations, 1.45 seconds (1.80 work units)

    Nodes    |    Current Node    |     Objective Bounds      |     Work
 Expl Unexpl |  Obj  Depth IntInf | Incumbent    BestBd   Gap | It/Node Time

     0     0 1136.39728    0   25          - 1136.39728      -     -    2s
H    0     0                    8740.8667859 1136.39728  87.0%     -    4s
H    0     0                    3315.6539027 1136.39728  65.7%     -    6s
     0     0 1161.88282    0   25 3315.65390 1161.88282  65.0%     -    8s
H    0     0                    1420.8480773 1161.88282  18.2%     -   10s
     0     0 1162.26445    0   25 1420.84808 1162.26445  18.2%     -   10s
     0     0 1162.27019    0   25 1420.84808 1162.27019  18.2%     -   10s
     0     0 1163.80545    0   26 1420.84808 1163.80545  18.1%     -   11s
     0     0 1163.80618    0   26 1420.84808 1163.80618  18.1%     -   12s
     0     0 1165.41724    0   24 1420.84808 1165.41724  18.0%     -   13s
     0     0 1165.41875    0   24 1420.84808 1165.41875  18.0%     -   13s
     0     0 1165.48464    0   24 1420.84808 1165.48464  18.0%     -   14s
     0     0 1165.48470    0   24 1420.84808 1165.48470  18.0%     -   15s
     0     0 1165.48470    0   24 1420.84808 1165.48470  18.0%     -   16s
H    0     0                    1309.6531941 1165.48470  11.0%     -  145s
     0     2 1165.48470    0   24 1309.65319 1165.48470  11.0%     -  146s
     3     8 1244.99396    2   21 1309.65319 1185.26687  9.50%  2137  151s
     7    12     cutoff    3      1309.65319 1194.73684  8.77%  2536  157s
    15    19 1211.70658    4   21 1309.65319 1206.21530  7.90%  1989  162s
    24    22 1236.74647    5   19 1309.65319 1212.10981  7.45%  1730  168s
    33    30 1244.65969    6   19 1309.65319 1212.10981  7.45%  1699  172s
    51    46 1258.22697    8   17 1309.65319 1212.10981  7.45%  1450  177s
    72    43 1281.16584   10   14 1309.65319 1212.10981  7.45%  1217  184s
    85    46     cutoff   11      1309.65319 1212.10981  7.45%  1259  189s
    98    48 1274.72016   10   14 1309.65319 1212.10981  7.45%  1270  194s
   114    52 1290.52951   12   12 1309.65319 1212.10981  7.45%  1174  197s
   132    51     cutoff   14      1309.65319 1212.10981  7.45%  1104  200s
   170    39 1309.51718   15    9 1309.65319 1215.63128  7.18%  1003  209s
   195    35 1292.11125    6   21 1309.65319 1215.83874  7.16%   999  216s
   209    38     cutoff    7      1309.65319 1223.60517  6.57%  1041  222s
   222    44 1237.19892    8   17 1309.65319 1234.59592  5.73%  1068  226s
   240    45 1289.53313   11   13 1309.65319 1234.97091  5.70%  1065  233s
   264    43 1257.30648    9   16 1309.65319 1234.97091  5.70%  1074  240s
   291    57 1297.34656   10   14 1309.65319 1234.97091  5.70%  1084  245s
*  354    65              28    1307.0544959 1234.97091  5.51%   972  249s
   366    67     cutoff   11      1307.05450 1234.97091  5.51%   954  255s
   394    55 1293.45501   13    9 1307.05450 1234.97091  5.51%   932  265s
   442    56 1306.76222   13   12 1307.05450 1239.42446  5.17%   909  271s
   491    53 1272.90543    9   17 1307.05450 1253.39725  4.11%   867  278s
   531    49     cutoff   10      1307.05450 1253.39725  4.11%   862  285s
   571    64 1299.17009    9   14 1307.05450 1253.77625  4.08%   847  290s
   637    47 1300.76411   10   13 1307.05450 1260.54153  3.56%   788  295s
   742    34     cutoff   12      1307.05450 1277.97342  2.22%   700  301s
   815    10     cutoff   10      1307.05450 1280.12034  2.06%   669  306s
H  847    10                    1307.0217310 1283.62323  1.79%   656  306s

Cutting planes:
  Gomory: 1
  Implied bound: 226
  MIR: 380
  Flow cover: 8
  RLT: 1
  Relax-and-lift: 3

Explored 899 nodes (569781 simplex iterations) in 307.37 seconds (580.10 work units)
Thread count was 9 (of 12 available processors)

Solution count 6: 1307.02 1307.05 1309.65 ... 8740.87

Optimal solution found (tolerance 1.00e-02)
Best objective 1.307021730958e+03, best bound 1.307021730958e+03, gap 0.0000%

Gurobi 10.0.0 (win64) logging started Mon Apr 15 10:23:01 2024

Set parameter LogFile to value "C:\Users\ealvarezq\Documents\GitHub\Comillas\Models\JointResearch\05. Models\06.Benchmarking\B.Operation_cost\IEEE118_mod1_ByStages_nc80/openStarNet_IEEE118_mod1_ByStages_nc80.log"
Set parameter Method to value 2
Set parameter MIPFocus to value 1
Set parameter Presolve to value 2
Set parameter RINS to value 100
Set parameter MIPGap to value 0.01
Set parameter Threads to value 9
Set parameter TimeLimit to value 259200
Set parameter IterationLimit to value 760000000
Gurobi Optimizer version 10.0.0 build v10.0.0rc2 (win64)

CPU model: Intel(R) Core(TM) i7-8700 CPU @ 3.20GHz, instruction set [SSE2|AVX|AVX2]
Thread count: 6 physical cores, 12 logical processors, using up to 9 threads

Optimize a model with 113684 rows, 83832 columns and 281555 nonzeros
Model fingerprint: 0x112fae2a
Coefficient statistics:
  Matrix range     [8e-04, 9e+03]
  Objective range  [1e+00, 1e+00]
  Bounds range     [1e-04, 3e+00]
  RHS range        [2e-04, 3e+02]
Presolve removed 84428 rows and 36341 columns
Presolve time: 0.16s
Presolved: 29256 rows, 47660 columns, 114464 nonzeros

Ordering time: 0.00s

Barrier statistics:
 AA' NZ     : 9.766e+04
 Factor NZ  : 3.915e+05 (roughly 34 MB of memory)
 Factor Ops : 5.760e+06 (less than 1 second per iteration)
 Threads    : 9

                  Objective                Residual
Iter       Primal          Dual         Primal    Dual     Compl     Time
   0   1.55537330e+07 -5.86556548e+08  9.95e+01 1.14e+02  2.25e+04     0s
   1   1.63779341e+06 -1.64246821e+08  8.92e+00 2.05e-12  2.72e+03     0s
   2   3.99494565e+05 -3.04397172e+07  1.17e+00 2.05e-12  3.90e+02     0s
   3   2.00902090e+05 -3.96888598e+06  3.33e-02 1.59e-12  4.12e+01     0s
   4   1.05544719e+05 -7.18107572e+05  3.04e-03 3.18e-12  7.94e+00     0s
   5   4.77062850e+04 -2.22635858e+05  1.07e-03 1.02e-12  2.60e+00     0s
   6   1.95314766e+04 -6.81838280e+04  3.48e-04 5.61e-13  8.43e-01     0s
   7   1.01279966e+04 -2.11267014e+04  1.33e-04 6.47e-13  3.00e-01     0s
   8   4.81929233e+03 -5.30163854e+03  3.78e-05 3.29e-13  9.72e-02     0s
   9   3.69565926e+03 -3.25372414e+03  2.47e-05 3.66e-13  6.68e-02     0s
  10   2.67881693e+03 -7.61500011e+02  1.31e-05 4.07e-13  3.31e-02     0s
  11   2.17876362e+03  1.33080860e+02  7.95e-06 3.89e-13  1.97e-02     0s
  12   1.76059854e+03  6.35292537e+02  3.90e-06 3.41e-13  1.08e-02     0s
  13   1.61316885e+03  9.43158546e+02  2.56e-06 4.01e-13  6.44e-03     0s
  14   1.47697182e+03  1.14626536e+03  1.38e-06 5.79e-13  3.18e-03     0s
  15   1.35929748e+03  1.22872124e+03  3.91e-07 4.82e-13  1.25e-03     0s
  16   1.33023609e+03  1.27525891e+03  1.66e-07 5.05e-13  5.28e-04     0s
  17   1.32349106e+03  1.28832672e+03  1.18e-07 6.13e-13  3.38e-04     0s
  18   1.31498923e+03  1.29714479e+03  5.54e-08 5.47e-13  1.71e-04     0s
  19   1.31176654e+03  1.30195598e+03  3.25e-08 4.67e-13  9.43e-05     0s
  20   1.30952867e+03  1.30419435e+03  1.66e-08 3.31e-13  5.13e-05     0s
  21   1.30802629e+03  1.30567318e+03  6.39e-09 5.23e-13  2.26e-05     0s
  22   1.30717290e+03  1.30676252e+03  9.24e-10 3.88e-13  3.94e-06     0s
  23   1.30702827e+03  1.30700790e+03  3.31e-10 3.62e-13  1.96e-07     1s
  24   1.30702202e+03  1.30702161e+03  1.96e-10 3.23e-13  3.97e-09     1s
  25   1.30702173e+03  1.30702173e+03  1.91e-09 3.79e-13  8.48e-14     1s

Barrier solved model in 25 iterations and 0.53 seconds (0.52 work units)
Optimal objective 1.30702173e+03

Crossover log...

    8406 DPushes remaining with DInf 0.0000000e+00                 1s
       0 DPushes remaining with DInf 0.0000000e+00                 1s

     405 PPushes remaining with PInf 0.0000000e+00                 1s
       0 PPushes remaining with PInf 0.0000000e+00                 1s

  Push phase complete: Pinf 0.0000000e+00, Dinf 3.5277134e-12      1s

Iteration    Objective       Primal Inf.    Dual Inf.      Time
    2782    1.3070217e+03   0.000000e+00   0.000000e+00      1s

Solved in 2782 iterations and 0.78 seconds (0.68 work units)
Optimal objective  1.307021731e+03

Gurobi 11.0.0 (linux64) logging started Wed Aug  7 01:23:30 2024

Set parameter LogFile to value "/lustre1/scratch/348/vsc34888/JointResearch/05.Models/06.Benchmarking/B.Operation_cost/IEEE118_mod1_ByStages_nc80/openStarNet_IEEE118_mod1_ByStages_nc80.log"
Set parameter Method to value 2
Set parameter MIPFocus to value 1
Set parameter Presolve to value 2
Set parameter RINS to value 100
Set parameter MIPGap to value 0.01
Set parameter Threads to value 36
Set parameter TimeLimit to value 259200
Set parameter IterationLimit to value 760000000
Gurobi Optimizer version 11.0.0 build v11.0.0rc2 (linux64 - "Rocky Linux 8.9 (Green Obsidian)")

CPU model: Intel(R) Xeon(R) Gold 6240 CPU @ 2.60GHz, instruction set [SSE2|AVX|AVX2|AVX512]
Thread count: 36 physical cores, 36 logical processors, using up to 36 threads

Optimize a model with 113683 rows, 83832 columns and 281554 nonzeros
Model fingerprint: 0x8746073d
Coefficient statistics:
  Matrix range     [8e-04, 9e+03]
  Objective range  [1e+00, 1e+00]
  Bounds range     [1e-04, 3e+00]
  RHS range        [2e-04, 3e+00]
Presolve removed 85825 rows and 38961 columns
Presolve time: 0.16s
Presolved: 27858 rows, 46136 columns, 110239 nonzeros

Ordering time: 0.01s

Barrier statistics:
 AA' NZ     : 9.768e+04
 Factor NZ  : 3.648e+05 (roughly 30 MB of memory)
 Factor Ops : 5.290e+06 (less than 1 second per iteration)
 Threads    : 36

                  Objective                Residual
Iter       Primal          Dual         Primal    Dual     Compl     Time
   0   1.70657093e+07 -4.35972001e+08  1.13e+02 9.34e+01  2.23e+04     0s
   1   1.64353347e+06 -1.54648998e+08  9.18e+00 2.05e-12  2.68e+03     0s
   2   5.01064337e+05 -3.28158504e+07  1.64e+00 1.73e-12  4.62e+02     0s
   3   2.32689870e+05 -4.49915662e+06  5.34e-02 1.82e-12  4.87e+01     0s
   4   1.29628588e+05 -8.06714966e+05  9.34e-03 1.36e-12  9.35e+00     0s
   5   8.34456269e+04 -2.91828925e+05  4.65e-03 6.82e-13  3.73e+00     0s
   6   5.35436672e+04 -1.05136437e+05  2.37e-03 4.55e-13  1.57e+00     0s
   7   3.68624253e+04 -3.54119142e+04  1.23e-03 4.55e-13  7.16e-01     0s
   8   2.94049051e+04 -1.49882663e+04  7.70e-04 4.55e-13  4.40e-01     0s
   9   2.42453126e+04  2.91340519e+03  4.64e-04 4.55e-13  2.11e-01     0s
  10   2.13788773e+04  8.93163598e+03  3.01e-04 2.27e-13  1.23e-01     0s
  11   1.89939011e+04  1.23936535e+04  1.76e-04 4.55e-13  6.53e-02     0s
  12   1.71997587e+04  1.42583384e+04  7.97e-05 4.55e-13  2.91e-02     0s
  13   1.63462757e+04  1.49724813e+04  3.99e-05 4.55e-13  1.36e-02     0s
  14   1.60533573e+04  1.51621333e+04  2.53e-05 2.27e-13  8.82e-03     0s
  15   1.58396904e+04  1.53088239e+04  1.48e-05 4.55e-13  5.25e-03     0s
  16   1.57078834e+04  1.53991143e+04  8.56e-06 4.55e-13  3.06e-03     0s
  17   1.56536996e+04  1.54515285e+04  6.03e-06 4.55e-13  2.00e-03     0s
  18   1.55994930e+04  1.54809303e+04  3.51e-06 2.51e-13  1.17e-03     0s
  19   1.55655965e+04  1.55002421e+04  1.98e-06 4.55e-13  6.47e-04     0s
  20   1.55365687e+04  1.55139060e+04  6.88e-07 4.55e-13  2.24e-04     0s
  21   1.55279464e+04  1.55181771e+04  3.20e-07 4.55e-13  9.67e-05     0s
  22   1.55230093e+04  1.55189898e+04  1.12e-07 4.55e-13  3.98e-05     0s
  23   1.55217136e+04  1.55192686e+04  5.76e-08 4.55e-13  2.42e-05     0s
  24   1.55205119e+04  1.55200349e+04  9.42e-09 4.55e-13  4.72e-06     0s
  25   1.55203061e+04  1.55202258e+04  1.38e-09 4.55e-13  7.94e-07     0s
  26   1.55202723e+04  1.55202627e+04  3.21e-10 4.55e-13  9.50e-08     1s
  27   1.55202685e+04  1.55202680e+04  2.74e-10 2.27e-13  4.27e-09     1s
  28   1.55202684e+04  1.55202684e+04  2.16e-10 6.82e-13  2.59e-11     1s

Barrier solved model in 28 iterations and 0.53 seconds (0.52 work units)
Optimal objective 1.55202684e+04

Crossover log...

    8025 DPushes remaining with DInf 0.0000000e+00                 1s
       0 DPushes remaining with DInf 0.0000000e+00                 1s

     589 PPushes remaining with PInf 0.0000000e+00                 1s
       0 PPushes remaining with PInf 0.0000000e+00                 1s

  Push phase complete: Pinf 0.0000000e+00, Dinf 3.6634908e-11      1s

Iteration    Objective       Primal Inf.    Dual Inf.      Time
    2770    1.5520268e+04   0.000000e+00   0.000000e+00      1s

Solved in 2770 iterations and 0.76 seconds (0.62 work units)
Optimal objective  1.552026842e+04

Gurobi 11.0.0 (linux64) logging started Wed Aug  7 01:23:44 2024

Set parameter LogFile to value "/lustre1/scratch/348/vsc34888/JointResearch/05.Models/06.Benchmarking/B.Operation_cost/IEEE118_mod1_ByStages_nc80/openStarNet_IEEE118_mod1_ByStages_nc80.log"
Set parameter Method to value 2
Set parameter MIPFocus to value 1
Set parameter Presolve to value 2
Set parameter RINS to value 100
Set parameter MIPGap to value 0.01
Set parameter Threads to value 36
Set parameter TimeLimit to value 259200
Set parameter IterationLimit to value 760000000
Gurobi Optimizer version 11.0.0 build v11.0.0rc2 (linux64 - "Rocky Linux 8.9 (Green Obsidian)")

CPU model: Intel(R) Xeon(R) Gold 6240 CPU @ 2.60GHz, instruction set [SSE2|AVX|AVX2|AVX512]
Thread count: 36 physical cores, 36 logical processors, using up to 36 threads

Optimize a model with 113683 rows, 83832 columns and 281554 nonzeros
Model fingerprint: 0x8746073d
Coefficient statistics:
  Matrix range     [8e-04, 9e+03]
  Objective range  [1e+00, 1e+00]
  Bounds range     [1e-04, 3e+00]
  RHS range        [2e-04, 3e+00]
Presolve removed 85825 rows and 38961 columns
Presolve time: 0.16s
Presolved: 27858 rows, 46136 columns, 110239 nonzeros

Ordering time: 0.01s

Barrier statistics:
 AA' NZ     : 9.768e+04
 Factor NZ  : 3.648e+05 (roughly 30 MB of memory)
 Factor Ops : 5.290e+06 (less than 1 second per iteration)
 Threads    : 36

                  Objective                Residual
Iter       Primal          Dual         Primal    Dual     Compl     Time
   0   1.70657093e+07 -4.35972001e+08  1.13e+02 9.34e+01  2.23e+04     0s
   1   1.64353347e+06 -1.54648998e+08  9.18e+00 2.05e-12  2.68e+03     0s
   2   5.01064337e+05 -3.28158504e+07  1.64e+00 1.73e-12  4.62e+02     0s
   3   2.32689870e+05 -4.49915662e+06  5.34e-02 1.82e-12  4.87e+01     0s
   4   1.29628588e+05 -8.06714966e+05  9.34e-03 1.36e-12  9.35e+00     0s
   5   8.34456269e+04 -2.91828925e+05  4.65e-03 6.82e-13  3.73e+00     0s
   6   5.35436672e+04 -1.05136437e+05  2.37e-03 4.55e-13  1.57e+00     0s
   7   3.68624253e+04 -3.54119142e+04  1.23e-03 4.55e-13  7.16e-01     0s
   8   2.94049051e+04 -1.49882663e+04  7.70e-04 4.55e-13  4.40e-01     0s
   9   2.42453126e+04  2.91340519e+03  4.64e-04 4.55e-13  2.11e-01     0s
  10   2.13788773e+04  8.93163598e+03  3.01e-04 2.27e-13  1.23e-01     0s
  11   1.89939011e+04  1.23936535e+04  1.76e-04 4.55e-13  6.53e-02     0s
  12   1.71997587e+04  1.42583384e+04  7.97e-05 4.55e-13  2.91e-02     0s
  13   1.63462757e+04  1.49724813e+04  3.99e-05 4.55e-13  1.36e-02     0s
  14   1.60533573e+04  1.51621333e+04  2.53e-05 2.27e-13  8.82e-03     0s
  15   1.58396904e+04  1.53088239e+04  1.48e-05 4.55e-13  5.25e-03     0s
  16   1.57078834e+04  1.53991143e+04  8.56e-06 4.55e-13  3.06e-03     0s
  17   1.56536996e+04  1.54515285e+04  6.03e-06 4.55e-13  2.00e-03     0s
  18   1.55994930e+04  1.54809303e+04  3.51e-06 2.51e-13  1.17e-03     0s
  19   1.55655965e+04  1.55002421e+04  1.98e-06 4.55e-13  6.47e-04     0s
  20   1.55365687e+04  1.55139060e+04  6.88e-07 4.55e-13  2.24e-04     0s
  21   1.55279464e+04  1.55181771e+04  3.20e-07 4.55e-13  9.67e-05     0s
  22   1.55230093e+04  1.55189898e+04  1.12e-07 4.55e-13  3.98e-05     0s
  23   1.55217136e+04  1.55192686e+04  5.76e-08 4.55e-13  2.42e-05     0s
  24   1.55205119e+04  1.55200349e+04  9.42e-09 4.55e-13  4.72e-06     0s
  25   1.55203061e+04  1.55202258e+04  1.38e-09 4.55e-13  7.94e-07     1s
  26   1.55202723e+04  1.55202627e+04  3.21e-10 4.55e-13  9.50e-08     1s
  27   1.55202685e+04  1.55202680e+04  2.74e-10 2.27e-13  4.27e-09     1s
  28   1.55202684e+04  1.55202684e+04  2.16e-10 6.82e-13  2.59e-11     1s

Barrier solved model in 28 iterations and 0.53 seconds (0.52 work units)
Optimal objective 1.55202684e+04

Crossover log...

    8025 DPushes remaining with DInf 0.0000000e+00                 1s
       0 DPushes remaining with DInf 0.0000000e+00                 1s

     589 PPushes remaining with PInf 0.0000000e+00                 1s
       0 PPushes remaining with PInf 0.0000000e+00                 1s

  Push phase complete: Pinf 0.0000000e+00, Dinf 3.6634908e-11      1s

Iteration    Objective       Primal Inf.    Dual Inf.      Time
    2770    1.5520268e+04   0.000000e+00   0.000000e+00      1s

Solved in 2770 iterations and 0.75 seconds (0.62 work units)
Optimal objective  1.552026842e+04
